c Random 5-CNF over 20 variables and 80 clauses
c Generated with `cnfgen`
c (C) 2012-2016 Massimo Lauria <lauria.massimo@gmail.com>
c https://massimolauria.github.io/cnfgen
c
c COMMAND LINE: cnfgen --output tmp-5-20-80.dimacs --output-format dimacs randkcnf 5 20 80
c
c sdimacs generated by gen-sdimacs
c
p cnf 20 80
e 11 12 13 14 15 16 17 18 19 20 0
r 0.37 1 2 3 4 5 6 7 8 9 10 0
5 -13 -17 18 -19 0
-2 6 -8 9 -14 0
3 -8 -9 -15 -17 0
-1 8 -9 -17 19 0
4 6 -9 11 -12 0
-4 -6 -15 16 -18 0
5 -6 -10 -15 16 0
-1 -3 -13 17 19 0
3 4 -8 -11 16 0
-7 10 -15 18 -20 0
-1 -15 16 17 -18 0
-3 5 -8 14 -17 0
-1 6 15 -17 -19 0
2 -3 -12 -15 19 0
-1 -2 4 -9 11 0
-1 2 -8 -13 19 0
-2 -3 -4 11 -20 0
9 -10 -16 17 -19 0
-2 10 12 -14 -18 0
-1 -8 -13 -18 19 0
2 8 -10 15 16 0
7 8 -12 -16 -19 0
4 5 -6 14 20 0
2 -7 10 -19 -20 0
2 -6 -8 -11 13 0
4 -7 -8 -14 18 0
1 10 11 13 20 0
9 -12 15 16 -20 0
-1 2 10 -14 19 0
-4 -5 -7 10 14 0
2 3 5 -10 14 0
3 -7 -13 14 -18 0
-1 -4 -12 16 20 0
-5 -11 -15 18 20 0
2 -3 -4 -5 -9 0
-1 2 6 -10 -14 0
-4 -10 11 -13 -18 0
-1 -4 -11 -18 20 0
3 -4 -10 18 20 0
7 9 -15 -16 -17 0
-1 -3 -7 8 -10 0
-3 -8 -9 12 17 0
12 -16 17 18 20 0
-1 -5 7 11 -13 0
-3 -14 15 -16 19 0
-5 6 -8 15 -18 0
-3 5 7 12 -20 0
-6 8 11 18 19 0
-1 -11 12 -16 18 0
2 -5 -7 10 -16 0
6 7 -10 11 13 0
2 11 -12 13 -19 0
1 -2 10 19 -20 0
-4 -10 11 12 -14 0
3 11 13 -14 19 0
5 -10 14 -15 -17 0
-1 -3 4 -16 17 0
1 3 11 14 16 0
5 -14 -15 18 -20 0
-3 8 9 -10 -14 0
2 -5 10 14 -17 0
-7 -8 10 12 19 0
-1 3 -5 15 -19 0
2 -6 -11 -14 15 0
-1 -3 4 -5 11 0
2 -7 9 -10 -19 0
-2 3 7 -15 18 0
-1 6 -7 14 18 0
10 13 -17 19 -20 0
2 -4 8 -16 -19 0
1 -2 -7 9 -11 0
-3 -5 -9 18 -19 0
-3 -11 12 17 19 0
3 -6 -10 13 15 0
-5 9 12 18 19 0
3 4 -12 13 16 0
-6 -10 15 -17 -19 0
2 7 10 13 17 0
-2 8 15 17 -18 0
1 -6 7 9 11 0
